0
24
18
7
7
12
0
8
16
11
32
14
0
12
36
47
0
13
43
7
19
47
16
30
14
43
0
16
0
0
25
0
9
21
24
11
14
40
13
15
40
25
25
25
0
9
25
7
10
33
5
24
18
12
48
24
10
0
0
44
28
21
10
0
18
0
15
0
0
0
59
27
14
21
71
29
16
0
23
7
16
16
10
7
6
0
13
85
21
7
22
11
8
9
69
49
21
0
0
27
